#Put Keywords Here, check Charge and Multiplicity.

 C:\Users\pb556\Desktop\data\g09\C2H4O.g09

0  1
C          -0.01341        -0.00196         0.00000
C           1.31876        -0.00571         0.00000
H          -0.54628         0.94035         0.00000
H          -0.58232        -0.92534         0.00000
O           2.04664        -1.16280         0.00000
H           1.89742         0.91675         0.00000
H           2.98299        -0.95368         0.00000

