#Put Keywords Here, check Charge and Multiplicity.

 C:\Users\pb556\Desktop\data\g09\C2H4.g09

0  1
C           0.59713         0.93166         0.09379
H           0.01684         0.01445         0.14744
H           0.03631         1.86225         0.07457
C           1.92847         0.91604         0.05357
H           2.48929        -0.01455         0.07275
H           2.50875         1.83325        -0.00012

