#Put Keywords Here, check Charge and Multiplicity.

 C:\Users\pb556\Desktop\data\g09\C2H6.g09

0  1
H           0.53976         1.76681        -0.00185
C           0.71486         0.89801         0.64184
H           0.49030         0.00090         0.05482
H          -0.00745         0.94462         1.46397
C           2.15581         0.87449         1.16656
H           2.33092         0.00569         1.81025
H           2.87812         0.82788         0.34443
H           2.38037         1.77159         1.75358

