#Put Keywords Here, check Charge and Multiplicity.

 C:\Users\pb556\Desktop\data\g09\C2H6O.g09

0  1
C           1.01959         0.88434         0.97338
C           1.87547         1.99049         1.57080
H          -0.00765         1.23401         0.82500
H           0.99890         0.01532         1.63818
H           1.42294         0.56858         0.00634
O           3.19792         1.48117         1.74171
H           1.88215         2.86471         0.90197
H           1.45722         2.31018         2.53749
H           3.74725         2.17300         2.11892

