#Put Keywords Here, check Charge and Multiplicity.

 C:\Users\pb556\Desktop\data\g09\C3H6.g09

0  1
C           0.67397         0.98901         0.86395
C           1.77026         1.96720         1.18239
H          -0.01998         0.88933         1.70806
H           0.08077         1.33039         0.00628
H           1.07610        -0.00175         0.63098
C           3.07475         1.68597         1.18662
H           1.45161         2.98127         1.42646
H           3.81813         2.44042         1.42618
H           3.44290         0.68986         0.95010

