#Put Keywords Here, check Charge and Multiplicity.

 C:\Users\pb556\Desktop\data\g09\C3H8.g09

0  1
C           3.37223         1.64718         1.32549
C           2.00409         1.07495         0.93072
H           3.76129         1.15325         2.22393
H           3.30275         2.71995         1.54195
H           4.10923         1.51487         0.52601
C           0.94751         1.24466         2.03071
H           1.65564         1.56407         0.01183
H           2.11053         0.00956         0.68858
H          -0.01950         0.82946         1.72684
H           0.79594         2.30380         2.27107
H           1.25430         0.73705         2.95307

