#Put Keywords Here, check Charge and Multiplicity.

 C:\Users\pb556\Desktop\data\g09\CH4.g09

0  1
C           1.05825         0.93523         0.81030
H           1.41623         1.56945        -0.00406
H           1.20721         1.44780         1.76352
H          -0.00532         0.72844         0.67030
H           1.61493        -0.00481         0.81143

