#Put Keywords Here, check Charge and Multiplicity.

 C:\Users\pb556\Desktop\data\g09\CH4O.g09

0  1
H           0.23202         0.84147         1.59986
C           0.67180         0.98410         0.60276
H          -0.02628         1.56920         0.00013
H           0.80024         0.00193         0.12653
O           1.88644         1.71926         0.65231
H           2.52069         1.22564         1.17762

