%NProcShared=8
%Mem=500MW
#p uB971/6-311+G(d,p) opt=(Redundant,MaxCycle=200,MaxStep=100,ModRedundant,Tight)
GFInput Population=Regular
Integral(Grid=UltraFine) Guess=Mix NoSymmetry

 discr_freq-hr-fine-m-species-1627-radical-1_2_84

0  2
O          -2.24549         1.74901        -1.99948
C          -3.44059         1.26692        -1.60373
Ti         -0.43820         2.00300        -2.08447
C          -4.45451         2.08703        -1.28408
C          -3.51932        -0.23816        -1.58044
O           0.41520         0.41230        -2.40658
O           0.03722         3.25630        -3.32095
O           0.12878         2.58453        -0.41249
H          -4.40644         3.14690        -1.50796
H          -5.34409         1.69844        -0.80335
H          -3.29068        -0.64290        -2.57291
H          -4.51215        -0.57763        -1.27665
H          -2.77677        -0.64725        -0.88463
H           0.87704        -0.21586        -1.84832
H          -0.45774         3.88741        -3.84616
C           0.69070         3.34292         0.47182
C           0.53017         2.99483         1.91984
C           1.32770         4.62469         0.03044
H          -0.25837         3.60715         2.38722
H           1.45382         3.18585         2.47847
H           0.24954         1.94481         2.03214
H           1.71731         4.53155        -0.98806
H           2.13662         4.91981         0.70642
H           0.59130         5.44565         0.02536

 2 5 4 9 F