%NProcShared=8
%Mem=500MW
#p uB971/6-311+G(d,p) opt=(Redundant,MaxCycle=200,MaxStep=100,ModRedundant,Tight)
GFInput Population=Regular
Integral(Grid=UltraFine) Guess=Mix NoSymmetry

 discr_freq-hr-fine-m-species-1627-radical-1_2_144

0  2
O          -2.88663         1.28110        -2.83264
C          -3.44059         1.26692        -1.60373
Ti         -1.61595         1.34953        -4.14363
C          -4.45451         2.08703        -1.28408
C          -2.83478         0.25248        -0.66785
O          -0.39254         0.00251        -3.91731
O          -2.33304         1.29981        -5.81964
O          -0.69066         2.94990        -3.94917
H          -4.97802         2.65081        -2.04818
H          -4.77212         2.19133        -0.25369
H          -2.91424        -0.75220        -1.09843
H          -3.33259         0.26445         0.30440
H          -1.76757         0.45910        -0.52196
H           0.48954        -0.03436        -3.54305
H          -3.22791         1.36353        -6.15766
C          -0.19247         4.09943        -4.27053
C           0.46933         4.91665        -3.20380
C          -0.44603         4.64310        -5.64300
H          -0.21202         5.69592        -2.82481
H           1.35636         5.43113        -3.59130
H           0.75696         4.28423        -2.36045
H          -0.54666         3.82952        -6.36807
H           0.35698         5.31715        -5.95799
H          -1.38502         5.22103        -5.66715

 2 5 4 9 F