%NProcShared=8
%Mem=500MW
#p uB971/6-311+G(d,p) opt=(Redundant,MaxCycle=200,MaxStep=100,ModRedundant,Tight)
GFInput Population=Regular
Integral(Grid=UltraFine) Guess=Mix NoSymmetry

 discr_freq-hr-fine-m-species-1627-radical-1_2_216

0  2
O          -3.62007         0.21777        -2.43098
C          -3.44059         1.26692        -1.60373
Ti         -3.36274        -0.93397        -3.82571
C          -4.45451         2.08703        -1.28408
C          -2.03427         1.40219        -1.07843
O          -1.66496        -1.62512        -3.77751
O          -4.60520        -2.26808        -3.87290
O          -3.49582         0.04690        -5.39900
H          -5.47884         1.82937        -1.52923
H          -4.26409         3.01900        -0.76578
H          -1.73911         0.48756        -0.55171
H          -1.94677         2.25086        -0.39627
H          -1.32999         1.54024        -1.90778
H          -0.85381        -1.42104        -4.24639
H          -5.42343        -2.42609        -3.39896
C          -3.91898         0.38941        -6.57228
C          -3.41203         1.66483        -7.17231
C          -5.02039        -0.40263        -7.20717
H          -4.14277         2.47967        -7.04128
H          -3.24583         1.55733        -8.25050
H          -2.47992         1.97023        -6.69084
H          -4.97877        -1.44807        -6.88611
H          -4.96714        -0.35256        -8.29943
H          -6.00661        -0.00816        -6.91045

 2 5 4 9 F