%NProcShared=8
%Mem=500MW
#p uB971/6-311+G(d,p) opt=(Redundant,MaxCycle=200,MaxStep=100,ModRedundant,Tight)
GFInput Population=Regular
Integral(Grid=UltraFine) Guess=Mix NoSymmetry

 discr_freq-hr-fine-m-species-1627-radical-1_2_72

0  2
O          -2.18590         1.73208        -1.76703
C          -3.44059         1.26692        -1.60373
Ti         -0.37444         1.88799        -1.58717
C          -4.45451         2.08703        -1.28408
C          -3.58096        -0.21643        -1.83169
O           0.45041         0.31779        -2.05242
O           0.30780         3.28600        -2.53890
O          -0.00876         2.17058         0.21327
H          -4.33580         3.16396        -1.32766
H          -5.41399         1.68281        -0.98498
H          -3.24048        -0.47658        -2.84040
H          -4.61762        -0.53883        -1.71073
H          -2.95260        -0.77119        -1.12437
H           0.81007        -0.41515        -1.54945
H          -0.08888         4.01875        -3.01310
C           0.46200         2.74908         1.26998
C           0.09968         2.19258         2.61264
C           1.20133         4.04323         1.12141
H          -0.71851         2.77159         3.07143
H           0.94905         2.24002         3.30402
H          -0.23441         1.15639         2.51990
H           1.71695         4.08483         0.15693
H           1.92578         4.18213         1.93028
H           0.50487         4.89760         1.15731

 2 5 4 9 F