%NProcShared=8
%Mem=500MW
#p uB971/6-311+G(d,p) opt=(Redundant,MaxCycle=200,MaxStep=100,ModRedundant,Tight)
GFInput Population=Regular
Integral(Grid=UltraFine) Guess=Mix NoSymmetry

 discr_freq-hr-fine-m-species-1627-radical-1_2_180

0  2
O          -3.33433         0.72853        -2.83504
C          -3.44059         1.26692        -1.60373
Ti         -2.60921         0.23634        -4.43814
C          -4.45451         2.08703        -1.28408
C          -2.34932         0.84675        -0.65266
O          -1.10557        -0.77924        -4.17335
O          -3.80029        -0.63508        -5.50945
O          -2.06165         1.78476        -5.30859
H          -5.31169         2.19580        -1.93918
H          -4.43528         2.64834        -0.35778
H          -2.33298        -0.24484        -0.55636
H          -2.49333         1.29002         0.33527
H          -1.36945         1.15276        -1.03881
H          -0.16598        -0.58946        -4.19814
H          -4.74599        -0.78480        -5.46109
C          -1.97081         2.67093        -6.24634
C          -1.20332         3.92772        -5.97214
C          -2.77314         2.48905        -7.49802
H          -1.88339         4.75711        -5.71766
H          -0.63223         4.24383        -6.85282
H          -0.52128         3.78368        -5.13073
H          -2.91543         1.42570        -7.71435
H          -2.29202         2.97546        -8.35259
H          -3.77469         2.93771        -7.38893

 2 5 4 9 F