%NProcShared=8
%Mem=500MW
#p uB971/6-311+G(d,p) opt=(Redundant,MaxCycle=200,MaxStep=100,ModRedundant,Tight)
GFInput Population=Regular
Integral(Grid=UltraFine) Guess=Mix NoSymmetry

 discr_freq-hr-fine-m-species-1627-radical-1_2_288

0  2
O          -3.37264         0.01159        -1.11714
C          -3.44059         1.26692        -1.60373
Ti         -3.20083        -1.80680        -1.07277
C          -4.45451         2.08703        -1.28408
C          -2.28572         1.64384        -2.49602
O          -1.60843        -2.31579        -1.82621
O          -3.36863        -2.48694         0.61100
O          -4.54759        -2.52655        -2.13261
H          -5.14615         1.83483        -0.48800
H          -4.59198         3.02201        -1.81356
H          -1.33907         1.52939        -1.95578
H          -2.37532         2.67527        -2.84444
H          -2.24458         0.97813        -3.36669
H          -1.36354        -2.65883        -2.68750
H          -3.64131        -2.11299         1.45057
C          -5.56762        -3.25387        -2.45431
C          -6.18049        -3.06897        -3.80853
C          -6.20014        -4.12092        -1.40947
H          -7.07859        -2.43239        -3.75098
H          -6.49744        -4.02793        -4.23473
H          -5.47179        -2.58773        -4.48679
H          -5.45436        -4.45448        -0.68125
H          -6.68881        -4.99165        -1.85825
H          -6.97302        -3.56340        -0.85442

 2 5 4 9 F