%NProcShared=8
%Mem=500MW
#p uB971/6-311+G(d,p) opt=(Redundant,MaxCycle=200,MaxStep=100,ModRedundant,Tight)
GFInput Population=Regular
Integral(Grid=UltraFine) Guess=Mix NoSymmetry

 discr_freq-hr-fine-m-species-1627-radical-1_1_336

0  2
O          -2.36581         1.13315        -0.80108
C          -3.44059         1.26692        -1.60373
Ti         -1.05872         0.34440         0.20263
C          -4.62658         1.67295        -1.12269
C          -3.17108         0.94377        -3.05113
O          -0.08480        -0.82347        -0.82204
O           0.03173         1.55940         1.01526
O          -1.89273        -0.66787         1.51978
H          -4.75419         1.89674        -0.06944
H          -5.47567         1.79215        -1.78471
H          -2.36635         1.58048        -3.43591
H          -4.06477         1.08987        -3.66200
H          -2.83837        -0.09628        -3.15318
H          -0.09577        -1.77611        -0.93100
H          -0.00416         2.51137         1.12302
C          -2.19124        -1.09055         2.70517
C          -3.29300        -2.09481         2.85106
C          -1.55046        -0.43865         3.89175
H          -4.23347        -1.60660         3.15496
H          -3.05516        -2.83512         3.62376
H          -3.47258        -2.60635         1.90240
H          -0.54979        -0.07468         3.63879
H          -1.48565        -1.12990         4.73813
H          -2.14038         0.43125         4.22576

 1 3 2 4 F