%NProcShared=8
%Mem=500MW
#p uB971/6-311+G(d,p) opt=(Redundant,MaxCycle=200,MaxStep=100,ModRedundant,Tight)
GFInput Population=Regular
Integral(Grid=UltraFine) Guess=Mix NoSymmetry

 discr_freq-hr-fine-m-species-1627-radical-1_2_312

0  2
O          -3.09023         0.23907        -0.80497
C          -3.44059         1.26692        -1.60373
Ti         -2.66588        -1.45679        -0.27393
C          -4.45451         2.08703        -1.28408
C          -2.58796         1.40391        -2.83914
O          -1.23853        -2.08838        -1.23634
O          -2.34233        -1.57130         1.51718
O          -4.11104        -2.55308        -0.67979
H          -4.90057         2.06363        -0.29606
H          -4.83800         2.79422        -2.00951
H          -1.53502         1.52230        -2.55914
H          -2.89639         2.26293        -3.43932
H          -2.66011         0.49825        -3.45356
H          -1.15644        -2.67425        -1.99099
H          -2.46047        -0.96472         2.25010
C          -5.06866        -3.40194        -0.49175
C          -5.99942        -3.69493        -1.62821
C          -5.31581        -3.92396         0.89027
H          -6.93778        -3.12560        -1.52580
H          -6.27276        -4.75622        -1.65349
H          -5.54081        -3.41626        -2.58000
H          -4.38254        -3.96414         1.46048
H          -5.77180        -4.91881         0.86358
H          -6.00692        -3.26322         1.43984

 2 5 4 9 F