%NProcShared=8
%Mem=500MW
#p uB971/6-311+G(d,p) opt=(Redundant,MaxCycle=200,MaxStep=100,ModRedundant,Tight)
GFInput Population=Regular
Integral(Grid=UltraFine) Guess=Mix NoSymmetry

 discr_freq-hr-fine-m-species-1627-radical-1_2_120

0  2
O          -2.58200         1.56660        -2.59887
C          -3.44059         1.26692        -1.60373
Ti         -1.00856         1.84380        -3.48513
C          -4.45451         2.08703        -1.28408
C          -3.16211        -0.05105        -0.92742
O           0.03293         0.33587        -3.42302
O          -1.25941         2.38851        -5.20736
O          -0.07784         3.17365        -2.57937
H          -4.72475         2.91690        -1.92754
H          -5.02638         1.92557        -0.37835
H          -3.18218        -0.86356        -1.66261
H          -3.89740        -0.25807        -0.14657
H          -2.16130        -0.04449        -0.47882
H           0.78135         0.07016        -2.88564
H          -2.02817         2.67069        -5.70585
C           0.55215         4.28744        -2.39097
C           0.95431         4.65565        -0.99584
C           0.70128         5.24060        -3.53674
H           0.24262         5.37419        -0.55728
H           1.93998         5.13514        -0.98066
H           0.97261         3.76976        -0.35648
H           0.74945         4.69845        -4.48624
H           1.59599         5.86113        -3.42353
H          -0.16353         5.92268        -3.59283

 2 5 4 9 F