%NProcShared=8
%Mem=500MW
#p uB971/6-311+G(d,p) opt=(Redundant,MaxCycle=200,MaxStep=100,ModRedundant,Tight)
GFInput Population=Regular
Integral(Grid=UltraFine) Guess=Mix NoSymmetry

 discr_freq-hr-fine-m-species-1627-radical-1_2_24

0  2
O          -2.26916         1.30592        -0.93776
C          -3.44059         1.26692        -1.60373
Ti         -0.80383         0.74027        -0.00454
C          -4.45451         2.08703        -1.28408
C          -3.48002         0.25447        -2.71970
O           0.10442        -0.53734        -0.95594
O           0.30400         2.11178         0.46168
O          -1.40761        -0.08002         1.55037
H          -4.30413         2.92381        -0.61107
H          -5.44094         1.92938        -1.70306
H          -2.67641         0.45364        -3.43779
H          -4.43921         0.27850        -3.24182
H          -3.31763        -0.75517        -2.32332
H           0.13690        -1.49482        -0.91468
H           0.22499         3.06655         0.42548
C          -1.53225        -0.31880         2.81542
C          -2.54588        -1.32936         3.25703
C          -0.79030         0.53949         3.79337
H          -3.46921        -0.83623         3.60269
H          -2.17108        -1.92638         4.09654
H          -2.81005        -1.99293         2.43012
H           0.14816         0.89740         3.35863
H          -0.58076        -0.00416         4.72015
H          -1.38540         1.42773         4.06391

 2 5 4 9 F