%NProcShared=8
%Mem=500MW
#p uB971/6-311+G(d,p) opt=(Redundant,MaxCycle=200,MaxStep=100,ModRedundant,Tight)
GFInput Population=Regular
Integral(Grid=UltraFine) Guess=Mix NoSymmetry

 discr_freq-hr-fine-m-species-1627-radical-1_2_204

0  2
O          -3.55144         0.37009        -2.60407
C          -3.44059         1.26692        -1.60373
Ti         -3.15932        -0.56666        -4.12287
C          -4.45451         2.08703        -1.28408
C          -2.11092         1.23575        -0.89452
O          -1.51104        -1.35690        -3.97743
O          -4.43652        -1.80121        -4.53569
O          -3.04651         0.65072        -5.52299
H          -5.44728         1.93164        -1.69151
H          -4.29700         2.91516        -0.60375
H          -1.92354         0.23504        -0.48884
H          -2.08010         1.96265        -0.07972
H          -1.29923         1.45752        -1.59799
H          -0.63808        -1.13182        -4.30414
H          -5.31535        -1.98121        -4.19752
C          -3.29859         1.19422        -6.66929
C          -2.66757         2.51427        -6.99027
C          -4.33775         0.57632        -7.55351
H          -3.37648         3.34133        -6.82134
H          -2.36601         2.56420        -8.04300
H          -1.79521         2.68589        -6.35509
H          -4.37977        -0.50667        -7.40141
H          -4.14003         0.79055        -8.60868
H          -5.33801         0.97850        -7.32109

 2 5 4 9 F