%NProcShared=8
%Mem=500MW
#p uB971/6-311+G(d,p) opt=(Redundant,MaxCycle=200,MaxStep=100,ModRedundant,Tight)
GFInput Population=Regular
Integral(Grid=UltraFine) Guess=Mix NoSymmetry

 discr_freq-hr-fine-m-species-1627-radical-1_2_228

0  2
O          -3.65768         0.09256        -2.22904
C          -3.44059         1.26692        -1.60373
Ti         -3.50580        -1.25667        -3.45154
C          -4.45451         2.08703        -1.28408
C          -1.99089         1.53991        -1.29418
O          -1.77685        -1.86371        -3.52030
O          -4.66291        -2.62904        -3.12988
O          -3.88968        -0.54649        -5.12586
H          -5.48404         1.75325        -1.35044
H          -4.25762         3.09676        -0.94476
H          -1.57919         0.73382        -0.67627
H          -1.87082         2.48968        -0.76809
H          -1.40351         1.57099        -2.21988
H          -1.04318        -1.70555        -4.11710
H          -5.40572        -2.74122        -2.53428
C          -4.47366        -0.41329        -6.27224
C          -4.12130         0.76852        -7.12247
C          -5.59567        -1.33960        -6.62801
H          -4.87759         1.56438        -7.02381
H          -4.08294         0.49634        -8.18366
H          -3.15688         1.18360        -6.81993
H          -5.45265        -2.31765        -6.15820
H          -5.68032        -1.46307        -7.71243
H          -6.55961        -0.94188        -6.26897

 2 5 4 9 F