%NProcShared=8
%Mem=500MW
#p uB971/6-311+G(d,p) opt=(Redundant,MaxCycle=200,MaxStep=100,ModRedundant,Tight)
GFInput Population=Regular
Integral(Grid=UltraFine) Guess=Mix NoSymmetry

 discr_freq-hr-fine-m-species-1627-radical-1_2_192

0  2
O          -3.45478         0.54286        -2.74075
C          -3.44059         1.26692        -1.60373
Ti         -2.90443        -0.17079        -4.33003
C          -4.45451         2.08703        -1.28408
C          -2.21749         1.04787        -0.75050
O          -1.32182        -1.07077        -4.11133
O          -4.16425        -1.24883        -5.08927
O          -2.56139         1.23857        -5.49241
H          -5.39074         2.05559        -1.83018
H          -4.35491         2.78978        -0.46574
H          -2.12442        -0.01270        -0.49041
H          -2.26498         1.63763         0.16773
H          -1.31258         1.32645        -1.30405
H          -0.40541        -0.85053        -4.28782
H          -5.08620        -1.42603        -4.89506
C          -2.63960         1.96597        -6.55904
C          -1.92045         3.27972        -6.58430
C          -3.57759         1.55446        -7.65189
H          -2.61222         4.11170        -6.37361
H          -1.48193         3.47294        -7.57022
H          -1.13268         3.29931        -5.82737
H          -3.68182         0.46542        -7.68157
H          -3.23514         1.91629        -8.62666
H          -4.58304         1.97497        -7.48294

 2 5 4 9 F