%NProcShared=8
%Mem=500MW
#p uB971/6-311+G(d,p) opt=(Redundant,MaxCycle=200,MaxStep=100,ModRedundant,Tight)
GFInput Population=Regular
Integral(Grid=UltraFine) Guess=Mix NoSymmetry

 discr_freq-hr-fine-m-species-1627-radical-1_2_96

0  2
O          -2.33414         1.72612        -2.22194
C          -3.44059         1.26692        -1.60373
Ti         -0.56941         2.03426        -2.58086
C          -4.45451         2.08703        -1.28408
C          -3.42605        -0.21691        -1.33909
O           0.33110         0.44739        -2.76337
O          -0.32529         3.09107        -4.04689
O           0.16336         2.89799        -1.10703
H          -4.49759         3.09841        -1.67267
H          -5.25342         1.74570        -0.63702
H          -3.29758        -0.76607        -2.27878
H          -4.35194        -0.54221        -0.85936
H          -2.58047        -0.47967        -0.69191
H           0.89473        -0.06453        -2.18046
H          -0.91783         3.60989        -4.59355
C           0.78365         3.80979        -0.43118
C           0.82356         3.69209         1.06155
C           1.28398         5.02841        -1.14403
H           0.06346         4.33980         1.52834
H           1.79590         4.00638         1.45836
H           0.62194         2.66338         1.36980
H           1.55014         4.78876        -2.17821
H           2.15091         5.45965        -0.63329
H           0.50496         5.80828        -1.17888

 2 5 4 9 F