%NProcShared=8
%Mem=500MW
#p uB971/6-311+G(d,p) opt=(Redundant,MaxCycle=200,MaxStep=100,ModRedundant,Tight)
GFInput Population=Regular
Integral(Grid=UltraFine) Guess=Mix NoSymmetry

 discr_freq-hr-fine-m-species-1627-radical-1_4_24

0  2
O          -2.36581         1.13315        -0.80108
C          -3.44059         1.26692        -1.60373
Ti         -1.05872         0.34440         0.20263
C          -4.45451         2.08703        -1.28408
C          -3.37346         0.44235        -2.86372
O          -0.08480        -0.82347        -0.82204
O           0.03173         1.55940         1.01526
O          -1.89273        -0.66787         1.51978
H          -4.43972         2.65965        -0.36340
H          -5.30267         2.19620        -1.94903
H          -2.47553         0.70138        -3.43621
H          -4.25433         0.60352        -3.48927
H          -3.30428        -0.62410        -2.61726
H          -0.09577        -1.77611        -0.93100
H          -0.00416         2.51137         1.12302
C          -2.19124        -1.09055         2.70517
C          -2.85707        -2.42523         2.84302
C          -2.02108        -0.16529         3.87071
H          -3.94533        -2.31077         2.97644
H          -2.48440        -2.96563         3.72095
H          -2.69116        -3.02987         1.94817
H          -1.19737         0.53292         3.69237
H          -1.83639        -0.72105         4.79559
H          -2.93182         0.43639         4.02829

 8 3 16 17 F