%NProcShared=8
%Mem=500MW
#p uB971/6-311+G(d,p) opt=(Redundant,MaxCycle=200,MaxStep=100,ModRedundant,Tight)
GFInput Population=Regular
Integral(Grid=UltraFine) Guess=Mix NoSymmetry

 discr_freq-hr-fine-m-species-1627-radical-1_2_252

0  2
O          -3.63470        -0.05607        -1.77480
C          -3.44059         1.26692        -1.60373
Ti         -3.58872        -1.71438        -2.54025
C          -4.45451         2.08703        -1.28408
C          -2.00998         1.70665        -1.78253
O          -1.85703        -2.21203        -2.88098
O          -4.44032        -2.97543        -1.53510
O          -4.44536        -1.59987        -4.18588
H          -5.41561         1.69149        -0.97493
H          -4.32395         3.16173        -1.32184
H          -1.35947         1.16526        -1.08624
H          -1.90169         2.77998        -1.61081
H          -1.66426         1.47354        -2.79695
H          -1.31124        -2.21146        -3.66938
H          -5.00148        -2.93342        -0.75894
C          -5.29284        -1.87366        -5.12385
C          -5.31314        -1.00767        -6.34588
C          -6.32938        -2.92742        -4.88155
H          -6.12716        -0.26647        -6.29006
H          -5.48614        -1.60220        -7.25048
H          -4.37085        -0.46343        -6.44487
H          -5.94856        -3.69410        -4.19970
H          -6.64656        -3.39573        -5.81881
H          -7.22826        -2.49136        -4.41449

 2 5 4 9 F