%NProcShared=8
%Mem=500MW
#p uB971/6-311+G(d,p) opt=(Redundant,MaxCycle=200,MaxStep=100,ModRedundant,Tight)
GFInput Population=Regular
Integral(Grid=UltraFine) Guess=Mix NoSymmetry

 discr_freq-hr-fine-m-species-1627-radical-1_2_48

0  2
O          -2.16292         1.58345        -1.31279
C          -3.44059         1.26692        -1.60373
Ti         -0.45736         1.43028        -0.67587
C          -4.45451         2.08703        -1.28408
C          -3.60005        -0.04969        -2.32004
O           0.37023        -0.03053        -1.41309
O           0.53039         2.93961        -0.94412
O          -0.56444         1.11720         1.15325
H          -4.26737         3.10220        -0.95215
H          -5.48032         1.74778        -1.36206
H          -3.02076        -0.04514        -3.25037
H          -4.64849        -0.24853        -2.55345
H          -3.21335        -0.86864        -1.70143
H           0.54201        -0.92107        -1.10172
H           0.31536         3.82656        -1.23776
C          -0.35718         1.28871         2.41837
C          -1.09216         0.41639         3.38923
C           0.46762         2.45541         2.86787
H          -1.96809         0.94072         3.80517
H          -0.45415         0.14148         4.23720
H          -1.44838        -0.49064         2.89496
H           1.22104         2.70838         2.11543
H           0.95953         2.24947         3.82390
H          -0.16379         3.34811         3.01179

 2 5 4 9 F