%NProcShared=8
%Mem=500MW
#p uB971/6-311+G(d,p) opt=(Redundant,MaxCycle=200,MaxStep=100,ModRedundant,Tight)
GFInput Population=Regular
Integral(Grid=UltraFine) Guess=Mix NoSymmetry

 discr_freq-hr-fine-m-species-1627-radical-1_2_360

0  2
O          -2.48629         0.94747        -0.70679
C          -3.44059         1.26692        -1.60373
Ti         -1.35398        -0.06274         0.31074
C          -4.45451         2.08703        -1.28408
C          -3.24162         0.64349        -2.96157
O          -0.30107        -1.11502        -0.76004
O          -0.33223         0.94569         1.43545
O          -2.39247        -1.21404         1.33598
H          -4.43973         2.65963        -0.36343
H          -5.30264         2.19620        -1.94904
H          -2.26698         0.93352        -3.37028
H          -4.02599         0.95114        -3.65681
H          -3.24741        -0.45043        -2.88252
H          -0.33524        -2.03717        -1.02069
H          -0.34437         1.87013         1.68905
C          -2.86003        -1.79553         2.39248
C          -4.01014        -2.74281         2.23890
C          -2.35490        -1.37322         3.73787
H          -4.96230        -2.25199         2.49898
H          -3.90486        -3.60601         2.90637
H          -4.08398        -3.09072         1.20576
H          -1.31618        -1.03496         3.67158
H          -2.42875        -2.18905         4.46404
H          -2.94871        -0.53147         4.13172

 2 5 4 9 F