%NProcShared=8
%Mem=500MW
#p uB971/6-311+G(d,p) opt=(Redundant,MaxCycle=200,MaxStep=100,ModRedundant,Tight)
GFInput Population=Regular
Integral(Grid=UltraFine) Guess=Mix NoSymmetry

 discr_freq-hr-fine-m-species-1627-radical-1_4_96

0  2
O          -2.36581         1.13315        -0.80108
C          -3.44059         1.26692        -1.60373
Ti         -1.05872         0.34440         0.20263
C          -4.45451         2.08703        -1.28408
C          -3.37346         0.44235        -2.86372
O          -0.08480        -0.82347        -0.82204
O           0.03173         1.55940         1.01526
O          -1.89273        -0.66787         1.51978
H          -4.43972         2.65965        -0.36340
H          -5.30267         2.19620        -1.94903
H          -2.47553         0.70138        -3.43621
H          -4.25433         0.60352        -3.48927
H          -3.30428        -0.62410        -2.61726
H          -0.09577        -1.77611        -0.93100
H          -0.00416         2.51137         1.12302
C          -2.19124        -1.09055         2.70517
C          -1.39070        -2.21481         3.28732
C          -3.42325        -0.56455         3.37524
H          -1.92182        -3.17459         3.17800
H          -1.22014        -2.06640         4.35997
H          -0.42891        -2.30424         2.77661
H          -3.62909         0.46140         3.05449
H          -3.32656        -0.59507         4.46525
H          -4.30330        -1.17352         3.10887

 8 3 16 17 F