%NProcShared=8
%Mem=500MW
#p uB971/6-311+G(d,p) opt=(Redundant,MaxCycle=200,MaxStep=100,ModRedundant,Tight)
GFInput Population=Regular
Integral(Grid=UltraFine) Guess=Mix NoSymmetry

 discr_freq-hr-fine-m-species-1627-radical-1_2_348

0  2
O          -2.62527         0.75702        -0.65901
C          -3.44059         1.26692        -1.60373
Ti         -1.67663        -0.46333         0.31508
C          -4.45451         2.08703        -1.28408
C          -3.09029         0.84905        -3.00895
O          -0.53490        -1.39921        -0.77261
O          -0.77198         0.29740         1.70387
O          -2.88498        -1.69470         1.00696
H          -4.53783         2.50929        -0.28887
H          -5.20331         2.34752        -2.02222
H          -2.05986         1.13991        -3.24284
H          -3.76415         1.30616        -3.73711
H          -3.14950        -0.24170        -3.10747
H          -0.57098        -2.26660        -1.17981
H          -0.78076         1.17089         2.09883
C          -3.50939        -2.40288         1.89100
C          -4.66593        -3.24504         1.44731
C          -3.16849        -2.22341         3.33847
H          -5.62385        -2.74423         1.66348
H          -4.68305        -4.20536         1.97571
H          -4.61753        -3.42486         0.37065
H          -2.11752        -1.94147         3.45556
H          -3.36888        -3.13537         3.90990
H          -3.77511        -1.41840         3.78595

 2 5 4 9 F