%NProcShared=8
%Mem=500MW
#p uB971/6-311+G(d,p) opt=(Redundant,MaxCycle=200,MaxStep=100,ModRedundant,Tight)
GFInput Population=Regular
Integral(Grid=UltraFine) Guess=Mix NoSymmetry

 discr_freq-hr-fine-m-species-1627-radical-1_2_36

0  2
O          -2.20053         1.45824        -1.11085
C          -3.44059         1.26692        -1.60373
Ti         -0.60041         1.10758        -0.30170
C          -4.45451         2.08703        -1.28408
C          -3.55667         0.08803        -2.53579
O           0.25834        -0.26912        -1.15587
O           0.47268         2.57865        -0.20110
O          -0.95830         0.52380         1.42639
H          -4.27257         3.02608        -0.77335
H          -5.47385         1.82554        -1.54103
H          -2.86084         0.20112        -3.37493
H          -4.57254        -0.00971        -2.92527
H          -3.28687        -0.83789        -2.01353
H           0.35264        -1.20559        -0.97243
H           0.33307         3.51143        -0.37308
C          -0.91186         0.48601         2.71841
C          -1.80142        -0.47992         3.43907
C          -0.10766         1.51844         3.44703
H          -2.70292         0.02543         3.82263
H          -1.29126        -0.91951         4.30404
H          -2.12534        -1.27727         2.76587
H           0.74716         1.83880         2.84334
H           0.24635         1.13895         4.41090
H          -0.71680         2.41439         3.65327

 2 5 4 9 F