%NProcShared=8
%Mem=500MW
#p uB971/6-311+G(d,p) opt=(Redundant,MaxCycle=200,MaxStep=100,ModRedundant,Tight)
GFInput Population=Regular
Integral(Grid=UltraFine) Guess=Mix NoSymmetry

 discr_freq-hr-fine-m-species-1627-radical-1_2_324

0  2
O          -2.93399         0.39491        -0.70919
C          -3.44059         1.26692        -1.60373
Ti         -2.34724        -1.17593         0.01621
C          -4.45451         2.08703        -1.28408
C          -2.75616         1.23775        -2.94637
O          -1.01410        -1.89676        -1.01608
O          -1.79948        -0.98921         1.74565
O          -3.76346        -2.37918        -0.02344
H          -4.77340         2.20463        -0.25443
H          -4.96580         2.65321        -2.05313
H          -1.68571         1.44088        -2.82821
H          -3.18673         1.97671        -3.62594
H          -2.84929         0.24324        -3.39937
H          -0.99075        -2.59225        -1.67580
H          -1.86245        -0.27820         2.38562
C          -4.63837        -3.22403         0.41667
C          -5.68279        -3.73174        -0.52944
C          -4.68202        -3.52727         1.88286
H          -6.63366        -3.19079        -0.39387
H          -5.89345        -4.79331        -0.35516
H          -5.36222        -3.59127        -1.56452
H          -3.68495        -3.43878         2.32531
H          -5.07775        -4.53074         2.06945
H          -5.33838        -2.81479         2.40994

 2 5 4 9 F