%NProcShared=8
%Mem=500MW
#p uB971/6-311+G(d,p) opt=(Redundant,MaxCycle=200,MaxStep=100,ModRedundant,Tight)
GFInput Population=Regular
Integral(Grid=UltraFine) Guess=Mix NoSymmetry

 discr_freq-hr-fine-m-species-1627-radical-1_2_276

0  2
O          -3.48647        -0.05011        -1.31989
C          -3.44059         1.26692        -1.60373
Ti         -3.39376        -1.86065        -1.54656
C          -4.45451         2.08703        -1.28408
C          -2.16489         1.70713        -2.27513
O          -1.73773        -2.34164        -2.17003
O          -3.80723        -2.78048        -0.02710
O          -4.61748        -2.32727        -2.86558
H          -5.25382         1.75703        -0.62992
H          -4.48451         3.09884        -1.66980
H          -1.30237         1.45475        -1.64786
H          -2.16737         2.78336        -2.46218
H          -2.03639         1.18202        -3.22942
H          -1.39590        -2.56208        -3.03838
H          -4.17253        -2.52456         0.82151
C          -5.61449        -2.93437        -3.42268
C          -6.03702        -2.50718        -4.79479
C          -6.41203        -3.91259        -2.61611
H          -6.90912        -1.83467        -4.74698
H          -6.33299        -3.36856        -5.40482
H          -5.22720        -1.97042        -5.29477
H          -5.78175        -4.39803        -1.86455
H          -6.87168        -4.67324        -3.25525
H          -7.22835        -3.40204        -2.07831

 2 5 4 9 F