%NProcShared=8
%Mem=500MW
#p uB971/6-311+G(d,p) opt=(Redundant,MaxCycle=200,MaxStep=100,ModRedundant,Tight)
GFInput Population=Regular
Integral(Grid=UltraFine) Guess=Mix NoSymmetry

 discr_freq-hr-fine-m-species-1627-radical-1_2_168

0  2
O          -3.19535         0.91898        -2.88282
C          -3.44059         1.26692        -1.60373
Ti         -2.28656         0.63693        -4.44248
C          -4.45451         2.08703        -1.28408
C          -2.50065         0.64119        -0.60527
O          -0.87174        -0.49505        -4.16078
O          -3.36054         0.01321        -5.77787
O          -1.56914         2.26542        -4.97957
H          -5.21359         2.34615        -2.01374
H          -4.53461         2.49702        -0.28460
H          -2.54009        -0.45123        -0.68380
H          -2.75517         0.93500         0.41557
H          -1.46736         0.94403        -0.81386
H           0.06976        -0.36003        -4.03903
H          -4.30960        -0.08556        -5.87087
C          -1.32145         3.27828        -5.74486
C          -0.54753         4.42995        -5.18055
C          -1.95955         3.33924        -7.09861
H          -1.22184         5.24935        -4.88216
H           0.14596         4.84318        -5.92216
H           0.01227         4.11782        -4.29562
H          -2.11409         2.33221        -7.49832
H          -1.35189         3.92178        -7.79845
H          -2.94829         3.82464        -7.04316

 2 5 4 9 F