%NProcShared=8
%Mem=500MW
#p rB971/6-311+G(d,p) opt=(Redundant,MaxCycle=200,MaxStep=100,ModRedundant,Tight)
GFInput Population=Regular
Integral(Grid=UltraFine) Guess=Mix NoSymmetry

 discr_freq-hr-fine-species-0232-radical-0-restricted_1_24

0  1
O          -2.21654         0.99270        -0.69488
C          -3.03570         1.28537        -1.81589
Ti         -1.12244        -0.04134         0.25519
C          -2.91485         2.77415        -2.14954
C          -4.47453         0.86402        -1.50884
H          -2.65990         0.69606        -2.66597
O          -0.80119        -1.57557        -0.66415
O           0.45913         0.79665         0.55538
O          -1.93072        -0.44739         1.83360
H          -3.26838         3.38094        -1.30877
H          -3.51652         3.01782        -3.03200
H          -1.87365         3.03836        -2.35805
H          -4.51839        -0.20031        -1.25978
H          -5.11888         1.04546        -2.37619
H          -4.86333         1.43427        -0.65844
H          -1.12829        -2.47024        -0.55486
H           0.76594         1.69382         0.41409
H          -1.58611        -0.47678         2.72821

 1 3 2 4 F