%NProcShared=8
%Mem=500MW
#p rB971/6-311+G(d,p) opt=(Redundant,MaxCycle=200,MaxStep=100,ModRedundant,Tight)
GFInput Population=Regular
Integral(Grid=UltraFine) Guess=Mix NoSymmetry

 discr_freq-hr-fine-species-0232-radical-0-restricted_1_108

0  1
O          -2.21654         0.99270        -0.69488
C          -3.03570         1.28537        -1.81589
Ti         -1.89492         0.27574         0.90244
C          -2.91485         2.77415        -2.14954
C          -4.47453         0.86402        -1.50884
H          -2.65990         0.69606        -2.66597
O          -3.37141        -0.62342         1.46257
O          -0.50433        -0.88749         0.81973
O          -1.52794         1.61502         2.07772
H          -3.26838         3.38094        -1.30877
H          -3.51652         3.01782        -3.03200
H          -1.87365         3.03836        -2.35805
H          -4.51839        -0.20031        -1.25978
H          -5.11888         1.04546        -2.37619
H          -4.86333         1.43427        -0.65844
H          -4.04372        -0.41235         2.11280
H           0.14186        -1.09381         0.14231
H          -0.86014         1.68639         2.76247

 1 3 2 4 F