%NProcShared=8
%Mem=500MW
#p rB971/6-311+G(d,p) opt=(Redundant,MaxCycle=200,MaxStep=100,ModRedundant,Tight)
GFInput Population=Regular
Integral(Grid=UltraFine) Guess=Mix NoSymmetry

 discr_freq-hr-fine-species-0232-radical-0-restricted_1_264

0  1
O          -2.21654         0.99270        -0.69488
C          -3.03570         1.28537        -1.81589
Ti         -0.84416         1.28968         0.39934
C          -2.91485         2.77415        -2.14954
C          -4.47453         0.86402        -1.50884
H          -2.65990         0.69606        -2.66597
O           0.01484         2.80564        -0.11662
O          -1.41551         1.50028         2.10896
O           0.30419        -0.11685         0.28678
H          -3.26838         3.38094        -1.30877
H          -3.51652         3.01782        -3.03200
H          -1.87365         3.03836        -2.35805
H          -4.51839        -0.20031        -1.25978
H          -5.11888         1.04546        -2.37619
H          -4.86333         1.43427        -0.65844
H           0.84202         2.94915        -0.57977
H          -2.26108         1.36926         2.54126
H           0.78176        -0.59571         0.96686

 1 3 2 4 F