%NProcShared=8
%Mem=500MW
#p rB971/6-311+G(d,p) opt=(Redundant,MaxCycle=200,MaxStep=100,ModRedundant,Tight)
GFInput Population=Regular
Integral(Grid=UltraFine) Guess=Mix NoSymmetry

 discr_freq-hr-fine-species-0232-radical-0-restricted_2_300

0  1
O          -2.21654         0.99270        -0.69488
C          -3.03570         1.28537        -1.81589
Ti         -0.88482         0.14809         0.13101
C          -2.91485         2.77415        -2.14954
C          -4.47453         0.86402        -1.50884
H          -2.65990         0.69606        -2.66597
O          -0.03241        -0.93039        -1.05748
O           0.31434         1.33394         0.80146
O          -1.58203        -0.86862         1.46882
H          -3.89946         3.25265        -2.10980
H          -2.50319         2.90781        -3.15591
H          -2.25328         3.27566        -1.43666
H          -4.51839        -0.20031        -1.25978
H          -5.11888         1.04546        -2.37619
H          -4.86333         1.43427        -0.65844
H          -0.04881        -1.87995        -1.18956
H           0.31220         2.28744         0.90063
H          -1.28732        -1.01106         2.37039

 2 6 4 10 F